NAME : PR143A.80274.tour
COMMENT : Cost = 0_80274
COMMENT : Found by LKH [Keld Helsgaun] Sun Sep 17 16:52:42 2017
TYPE : TOUR
DIMENSION : 143
TOUR_SECTION
1
3
4
5
6
81
22
24
36
35
30
31
32
33
34
55
56
57
82
83
107
109
110
111
112
113
136
137
139
143
142
141
140
138
135
134
130
114
131
132
133
128
129
127
126
125
124
121
98
89
72
73
74
75
76
77
88
97
96
95
94
93
92
90
91
117
115
116
118
119
120
122
123
99
101
100
102
86
87
103
104
105
106
108
85
84
78
79
80
53
52
51
49
50
54
46
47
48
58
59
60
61
62
67
66
65
64
63
68
69
43
71
70
45
44
42
41
18
17
15
16
14
13
12
11
10
9
7
8
19
20
21
40
39
38
37
23
25
26
27
29
28
2
-1
EOF
